width = 37;
n = 27;
dimensions = [|12, 37
|5, 14
|5, 10
|5, 6
|5, 4
|5, 3
|4, 24
|4, 22
|4, 10
|4, 6
|4, 5
|4, 4
|4, 3
|3, 21
|3, 18
|3, 17
|3, 14
|3, 13
|3, 12
|3, 11
|3, 9
|3, 8
|3, 7
|3, 6
|3, 5
|3, 4
|3, 3|];